p ocr 638 570 1352
1 719
1 974
2 719
3 719
4 719
5 719
6 719
7 719
8 719
9 719
10 719
11 719
12 719
13 719
14 719
15 719
16 719
17 719
18 719
19 719
20 719
21 719
22 719
23 719
24 719
25 719
26 719
27 719
28 719
29 719
30 719
31 719
32 719
33 719
34 719
35 719
36 719
37 719
38 719
39 719
40 719
41 719
42 719
43 719
44 719
45 719
46 719
47 719
48 719
49 719
50 719
51 719
52 719
53 719
54 719
55 719
56 719
57 719
58 719
59 719
60 719
61 719
62 719
63 719
64 719
65 719
66 719
67 719
68 719
69 719
70 719
71 719
72 719
73 719
74 719
75 719
76 719
77 719
78 719
79 719
80 719
81 719
82 719
83 719
84 719
85 719
86 719
87 719
88 719
89 719
90 719
91 719
92 719
93 719
94 719
95 719
96 719
97 719
98 719
99 719
100 719
101 719
102 719
103 719
104 719
105 719
106 719
107 719
108 719
109 719
110 719
111 719
112 719
113 719
114 719
115 719
116 719
117 719
118 719
119 719
120 719
121 719
122 719
123 719
124 719
125 719
126 719
127 719
128 719
129 719
130 719
131 719
132 719
133 719
134 719
135 719
136 719
137 719
138 719
139 719
140 719
141 719
142 719
143 719
144 719
145 719
146 719
147 719
148 719
149 719
150 719
151 719
152 719
153 719
154 641
154 646
154 647
154 648
154 656
154 657
154 665
154 668
154 671
154 672
154 673
154 686
154 689
154 692
154 694
154 701
154 702
154 708
154 709
154 710
154 712
154 713
154 714
154 716
154 717
154 718
154 719
154 721
154 722
154 723
154 729
154 730
154 735
154 736
154 742
154 754
154 759
154 762
154 769
154 770
154 772
154 776
154 780
154 783
154 793
154 795
154 798
154 801
154 811
154 816
154 820
154 822
154 823
154 825
154 827
154 832
154 834
154 835
154 844
154 847
154 848
154 853
154 854
154 856
154 857
154 859
154 860
154 861
154 864
154 870
154 873
154 879
154 881
154 886
154 887
154 892
154 893
154 895
154 900
154 901
154 903
154 908
154 915
154 925
154 927
154 937
154 943
154 948
154 953
154 954
154 969
154 976
154 978
154 979
154 982
154 984
154 988
154 994
154 995
154 996
154 997
154 998
154 1001
154 1003
154 1004
154 1005
154 1006
154 1007
154 1014
154 1018
154 1019
154 1021
154 1024
154 1026
154 1028
154 1029
154 1031
154 1033
154 1034
154 1037
154 1039
154 1040
154 1041
154 1054
154 1064
154 1071
154 1073
154 1076
154 1094
154 1098
154 1101
154 1106
154 1111
154 1112
154 1116
154 1125
154 1127
154 1133
154 1140
154 1147
154 1151
154 1152
154 1154
154 1158
154 1159
154 1161
154 1174
154 1177
154 1187
154 1188
154 1189
154 1191
154 1197
154 1199
155 974
156 974
157 974
158 974
159 974
160 974
161 974
162 974
163 974
164 974
165 974
166 974
167 974
168 974
169 974
170 974
171 681
171 805
171 902
171 907
171 974
171 1023
171 1089
172 681
172 805
172 902
172 907
172 974
172 1023
172 1089
173 681
173 805
173 902
173 907
173 974
173 1023
173 1089
174 681
174 805
174 902
174 907
174 974
174 1023
174 1089
175 681
175 805
175 902
175 907
175 974
175 1023
175 1089
176 681
176 805
176 902
176 907
176 974
176 1023
176 1089
177 681
177 805
177 902
177 907
177 974
177 1023
177 1089
178 681
178 805
178 902
178 907
178 929
178 974
178 1023
178 1089
179 805
180 805
181 805
182 805
183 805
184 805
185 805
186 805
187 805
188 805
189 805
190 805
191 805
192 805
193 805
194 805
195 805
196 805
197 805
198 805
199 805
200 805
201 805
202 805
203 805
204 805
205 805
206 805
207 805
208 805
209 805
210 805
211 805
212 805
213 805
214 805
215 805
216 805
217 805
218 805
219 805
220 805
221 805
222 805
223 805
224 805
225 805
226 805
227 805
228 805
229 805
230 805
231 805
232 805
233 805
234 805
235 805
236 805
237 805
238 805
239 805
240 805
241 805
242 805
243 805
244 805
245 805
246 805
247 805
248 805
249 805
250 805
251 805
252 805
253 805
254 805
255 805
256 805
257 805
258 805
259 805
260 805
261 805
262 805
263 805
264 805
265 805
266 805
267 805
268 805
269 805
270 805
271 805
272 805
273 805
274 805
275 805
276 805
277 805
278 805
279 805
280 805
281 805
282 805
283 805
284 805
285 805
286 805
287 805
288 805
289 805
290 805
291 805
292 805
293 805
294 805
295 805
296 805
297 805
298 649
298 660
298 662
298 667
298 669
298 670
298 674
298 680
298 682
298 683
298 684
298 688
298 691
298 693
298 696
298 704
298 705
298 711
298 725
298 738
298 743
298 745
298 755
298 765
298 768
298 771
298 784
298 785
298 786
298 787
298 796
298 800
298 805
298 812
298 815
298 817
298 818
298 833
298 837
298 840
298 841
298 849
298 852
298 862
298 866
298 868
298 871
298 878
298 883
298 885
298 897
298 905
298 906
298 912
298 913
298 916
298 918
298 922
298 928
298 932
298 934
298 939
298 941
298 944
298 946
298 947
298 950
298 959
298 963
298 970
298 973
298 975
298 977
298 990
298 1008
298 1012
298 1020
298 1025
298 1032
298 1042
298 1055
298 1057
298 1062
298 1063
298 1065
298 1068
298 1069
298 1074
298 1075
298 1077
298 1085
298 1088
298 1097
298 1099
298 1100
298 1102
298 1105
298 1114
298 1119
298 1122
298 1124
298 1134
298 1135
298 1136
298 1137
298 1141
298 1143
298 1144
298 1145
298 1146
298 1150
298 1155
298 1160
298 1168
298 1169
298 1173
298 1183
298 1190
298 1192
298 1198
298 1201
299 929
300 929
301 929
302 929
303 929
304 929
305 929
306 929
307 929
308 929
309 929
310 929
311 929
312 929
313 929
313 1011
314 929
315 929
316 929
317 929
318 929
319 929
320 929
321 929
322 929
323 929
324 929
325 929
326 929
327 929
328 929
329 929
330 929
331 929
332 929
333 929
334 929
335 929
336 929
337 929
338 929
339 929
340 929
341 929
342 929
343 929
344 929
345 929
346 929
347 929
348 929
349 929
350 929
351 929
352 929
353 929
354 929
355 929
356 929
357 929
358 929
359 929
360 929
361 929
362 929
363 929
364 929
365 929
366 929
367 929
368 929
369 929
370 929
371 929
372 929
373 929
374 929
375 929
376 929
377 929
378 929
379 929
380 929
381 929
382 929
383 929
384 929
385 929
386 929
387 929
388 929
389 929
390 929
391 929
392 929
393 929
394 929
395 929
396 929
397 929
398 929
399 929
400 929
401 929
402 929
403 929
404 639
404 642
404 651
404 654
404 655
404 663
404 676
404 677
404 678
404 679
404 690
404 697
404 699
404 706
404 727
404 732
404 737
404 748
404 751
404 753
404 756
404 757
404 760
404 766
404 774
404 777
404 781
404 789
404 790
404 799
404 804
404 806
404 810
404 824
404 826
404 828
404 838
404 839
404 845
404 855
404 863
404 869
404 872
404 874
404 877
404 888
404 899
404 911
404 920
404 921
404 926
404 929
404 935
404 942
404 945
404 949
404 957
404 962
404 966
404 972
404 992
404 1010
404 1013
404 1022
404 1030
404 1035
404 1051
404 1052
404 1056
404 1058
404 1072
404 1079
404 1081
404 1082
404 1083
404 1086
404 1090
404 1091
404 1093
404 1095
404 1096
404 1115
404 1120
404 1126
404 1129
404 1138
404 1148
404 1149
404 1165
404 1194
404 1204
404 1207
405 1011
406 1011
407 1011
408 1011
409 1011
410 1011
411 1011
412 1011
413 1011
414 1011
415 1011
416 1011
417 715
417 1011
418 1011
419 1011
420 1011
421 1011
422 1011
423 1011
424 1011
425 1011
426 1011
427 1011
428 1011
429 1011
430 1011
431 1011
432 1011
433 1011
434 1011
435 1011
436 1011
437 1011
438 1011
439 1011
440 1011
441 1011
442 1011
443 1011
444 1011
445 1011
446 1011
447 1011
448 1011
449 1011
450 1011
451 1011
452 1011
453 1011
454 1011
455 1011
456 1011
457 1011
458 1011
459 1011
460 1011
461 1011
462 1011
463 1011
464 1011
465 1011
466 1011
467 1011
468 1011
469 1011
470 1011
471 1011
472 1011
473 1011
474 1011
475 1011
476 1011
477 1011
478 1011
479 1011
480 1011
481 1011
482 1011
483 644
483 645
483 650
483 652
483 666
483 675
483 687
483 703
483 720
483 724
483 726
483 728
483 733
483 739
483 740
483 741
483 747
483 773
483 794
483 802
483 803
483 809
483 819
483 843
483 850
483 875
483 880
483 890
483 898
483 910
483 914
483 917
483 919
483 924
483 936
483 938
483 951
483 956
483 960
483 965
483 967
483 971
483 991
483 1009
483 1011
483 1015
483 1045
483 1047
483 1050
483 1053
483 1067
483 1078
483 1080
483 1103
483 1107
483 1108
483 1117
483 1118
483 1121
483 1128
483 1132
483 1172
483 1179
483 1181
483 1200
483 1202
483 1203
484 715
485 715
486 715
487 715
488 715
489 715
490 715
491 715
492 715
493 715
494 643
494 715
494 782
494 788
494 814
494 930
494 1002
495 643
495 715
495 782
495 788
495 814
495 930
495 1002
496 643
496 715
496 782
496 788
496 814
496 930
496 1002
497 643
497 715
497 782
497 788
497 814
497 930
497 1002
498 643
498 715
498 782
498 788
498 814
498 930
498 1002
499 643
499 715
499 782
499 788
499 814
499 930
499 1002
500 643
500 715
500 782
500 788
500 814
500 930
500 1002
501 643
501 715
501 782
501 788
501 814
501 882
501 930
501 1002
502 1002
503 1002
504 1002
505 1002
506 1002
507 1002
508 1002
509 1002
510 1002
511 1002
512 1002
513 1002
514 1002
515 1002
516 1002
517 1002
518 1002
519 1002
520 1002
521 1002
522 1002
523 1002
524 1002
525 1002
526 1002
527 1002
528 1002
529 1002
530 1002
531 1002
532 1002
533 1002
534 1002
535 1002
536 1002
537 1002
538 1002
539 1002
540 1002
541 1002
542 1002
543 1002
544 1002
545 1002
546 658
546 659
546 685
546 695
546 698
546 700
546 734
546 746
546 752
546 761
546 764
546 767
546 775
546 821
546 829
546 865
546 867
546 894
546 896
546 904
546 923
546 933
546 952
546 955
546 961
546 980
546 983
546 987
546 999
546 1002
546 1016
546 1046
546 1048
546 1049
546 1084
546 1092
546 1123
546 1153
546 1156
546 1163
546 1167
546 1178
546 1182
546 1184
546 1185
546 1186
547 882
548 882
549 882
550 882
551 882
552 882
553 882
554 882
555 744
555 749
555 882
555 1000
555 1060
556 744
556 749
556 882
556 1000
556 1060
557 744
557 749
557 882
557 1000
557 1060
558 744
558 749
558 882
558 1000
558 1060
558 1110
559 1060
560 1060
561 1060
562 1060
563 1060
564 1060
565 1060
566 1060
567 1060
568 1060
569 1060
570 1060
571 1060
572 1060
573 1060
574 1060
575 1060
576 1060
577 1060
578 1060
579 1060
580 1060
581 1060
582 1060
583 1060
584 1060
585 1060
586 653
586 664
586 707
586 778
586 779
586 797
586 807
586 813
586 831
586 876
586 884
586 891
586 940
586 989
586 1017
586 1059
586 1060
586 1066
586 1070
586 1142
586 1157
586 1162
586 1170
586 1175
586 1176
586 1180
586 1193
586 1195
586 1206
587 1110
588 1110
589 1110
590 1110
591 1110
592 1110
593 842
593 846
593 931
593 968
593 981
593 1036
593 1044
593 1110
594 842
594 846
594 931
594 968
594 981
594 1036
594 1044
594 1110
595 842
595 846
595 931
595 968
595 981
595 1036
595 1044
595 1110
596 842
596 846
596 931
596 968
596 981
596 1036
596 1044
596 1110
597 842
597 846
597 931
597 958
597 968
597 981
597 1036
597 1044
597 1110
598 842
599 842
600 842
601 842
602 842
603 842
604 842
605 842
606 842
607 842
608 842
609 842
610 842
611 842
612 731
612 791
612 808
612 836
612 842
612 851
612 858
612 909
612 1038
612 1061
612 1087
612 1109
612 1113
612 1164
612 1196
612 1208
613 958
614 958
615 958
616 958
617 750
617 830
617 958
617 985
617 986
617 993
617 1043
617 1104
618 750
618 830
618 958
618 985
618 986
618 993
618 1043
618 1104
619 750
619 830
619 958
619 985
619 986
619 993
619 1043
619 1104
620 750
620 830
620 958
620 985
620 986
620 993
620 1027
620 1043
620 1104
621 1043
622 1043
623 1043
624 1043
625 1043
626 640
626 964
626 1043
626 1131
626 1139
626 1166
626 1171
627 1027
628 1027
629 763
629 1027
630 1027
631 1027
632 1027
633 1027
634 1027
635 661
635 758
635 792
635 889
635 1027
635 1130
635 1205
636 763
637 763
638 763